33, 1911
880, 1675
2197, 1982
1149, 1003
1287, 1556
2162, 2606
877, 4862
2382, 3139
1471, 3029
1404, 2861
1353, 2690
2258, 1182
1535, 1945
2471, 1204
1288, 1033
2282, 1041
660, 4713
2463, 3651
1402, 2716
832, 1312
795, 1787
1698, 2594
2456, 4780
2285, 1374
2465, 3510
1103, 1540
1783, 1540
1050, 2571
680, 3497
564, 2516
1163, 3602
1642, 2279
1479, 4764
896, 4737